/*********************************************
 * OPL 12.6.0.0 Data
 * Author: Adrian Rodriguez Bazaga, Pau Rodriguez Esmerats
 * Creation Date: 06/12/2017 at 23:02:58
 *********************************************/

nNurses=182;
maxConsec=2;
maxPresence=7;
maxHours=5;
minHours=1;
hours=24;
demand= [34 37 45 48 37 45 48 37 31 15 1 1 2 2 5 2 5 1 4 1 23 42 22 34  ];
